Results/Experiment 1 Results/New Benchmark/RES_20/output_p1_0.25_p2_0.00_n_20_00.txt
solutions: 0 nodes: 0  modelTime: 123  solveTime: 9  totalTime: 134  modelSize: 7358  readTime: 2 matchingSize: 0
